114
Lattice="14.759483662029265 0.0 0.0 7.380258413807584 12.781786651387147 0.0 7.380243655055182 4.260782501715179 12.050631347394049" Properties=species:S:1:pos:R:3:forces:R:3 energy=-30848.841105643754 pbc="True True True"
H    17.166810638040264    11.566799628342661    2.3959431306453296    0.03505596579759337    0.7596797943958487    0.9211044616269563
H    10.391931260040497    9.232075241735581    8.799170748954813    0.16925367694563342    -0.01943702713953078    0.38893903196958485
H    15.152442318761134    3.2144705981189303    0.6236271192356346    0.01574595116377608    0.17132290092535438    -0.1999552221020049
H    15.428455018627362    13.198368239182761    6.757442369774353    0.6313750521363777    0.05251478601615336    -0.8064430222079316
H    20.968952462595865    8.354501228588285    5.937790321351722    -0.09833287623511343    -0.138000887230052    -0.08874934559146055
H    12.821718368988067    11.860905590260213    0.764468940894911    0.19781246456634455    -0.9287673780647797    -1.0439826331463689
H    20.164574198879585    13.449131931085539    8.500504258460039    0.07987955323902354    0.3227860853196942    1.7840037712935266
H    5.203325638335655    4.037525599970674    3.6535544413570706    0.3716884711227413    0.4696845328184121    0.370453313071228
H    6.476452578322519    9.882112891744764    0.7336632917566172    -0.14715298673081575    -0.28619517081945    -0.2515490388965677
H    14.332783438660714    4.5739237510789845    5.763830060388294    -0.019879256916508915    0.1586797572898179    0.03203954734206577
H    12.20845295758527    7.975607890442319    2.7181563401019804    0.9120773177492224    -1.200046035662623    1.3240873743396222
H    26.126453831046035    15.25865575215541    8.681035572143871    -0.5694124897336902    -0.12506360937075797    -1.3829512429794373
H    7.431639790543854    7.68880010777489    3.739705967641281    -0.0348132536409263    0.07054439117941769    0.5526864339711696
H    21.52510600020679    15.432405681052952    8.675468268048236    -0.41634750794948194    0.12174380071939654    1.3701661744387312
H    11.49107468172553    9.60164215963523    0.7009214784567679    1.1617998448227365    0.7015918847484289    -1.3710321220485349
H    18.70674083756121    4.607625571215378    5.677858158016438    0.19070902021846559    0.8070636865577138    0.18004202662121627
H    17.34676875755316    10.130528920703508    4.483049170020872    0.22735084256512936    0.16909786808234928    -0.1733360748519467
H    2.9330861621787743    3.3990818416373494    0.720770788622487    -0.4446707825029187    -0.3087082660123333    -0.10186968600959667
H    22.67189915206641    9.23882668038352    8.661796350384211    1.0559542045857038    -0.7522446777152361    1.3649098107407422
H    15.54501705742674    14.931708899088871    4.905010140501105    0.7762546692811232    -1.6189836731314526    -0.7746117342375823
H    20.180891240581246    11.991517760259551    0.36399634878062614    0.028996903632322036    -0.4549212573567351    -0.15349589870642655
H    13.537900990107627    8.71222318139275    4.81955270950513    -0.30669869163043734    -1.474741689618629    -0.22373535702799768
H    13.02082403030889    3.7798366294145125    3.8744821907763676    -0.0288004713360364    0.7124475973319003    -0.205686211479239
H    12.738608267554484    13.15125952920471    8.605595280531846    -0.009475030082091964    -0.9498180296696098    -0.7324728929189461
H    9.30512423974256    4.003262597986021    2.08391144947309    0.024624999488289372    -0.06313755663570486    -1.801891965772292
H    13.66172535110934    6.786427797477926    9.451058899918706    -0.06351139506345264    -0.159376012078223    -0.050473844173332186
H    19.297496722626608    6.66303528741421    9.65403361924748    -0.27379062557521333    0.16125086064434194    -0.24263708044911655
H    16.364750768476505    11.479160632545504    9.561987519221761    0.16200265126520474    1.5060489867253262    -0.5510645819751359
C    16.965060879285595    12.039276627942046    3.4048076978088133    0.11499568285511277    -1.536591123473717    -0.46194088373525655
C    9.872075532499599    8.868306222192839    9.697764141289875    -0.3656006125998993    -0.17292778363924827    -1.3654302020596978
C    23.093789800187132    7.8655671087878325    11.819108411864843    1.3289642431824835    0.5107142001499065    -0.8944297785444403
C    15.963054660441902    12.957563889928995    5.796919712452191    -0.025697149587125892    1.0899791579381328    0.0022805686754628165
C    20.789096532494103    7.4060484208004835    5.418655862348822    -0.7954947499036974    0.11066234526139797    1.0548332035231311
C    20.271838371834924    15.445983071791856    11.893743962525676    -1.8548078439117515    0.38714131650410166    2.989239836187592
C    20.235785459686173    13.946169611391733    9.533785527794883    0.4506861359111631    1.1364487657471294    -0.6025277867192889
C    5.468638782470736    4.963675408702813    4.207234520017469    -1.2287668027946692    -0.09796263735206197    0.2020090194615987
C    13.30165782031905    14.29182491089219    11.848895929341783    1.0444392611021323    -2.684139342402327    -1.0437898003947796
C    13.860085269446175    5.316906102226919    5.113333629612867    -0.07301933526848252    -0.6708481734970433    0.9851917838418224
C    12.690982408563865    7.210540402496312    3.452020777408105    -0.8675355232354481    0.9083975546282277    -1.1112478391074265
C    26.695527891724396    14.913992347710204    9.505586002333807    0.1290364782741685    1.0164497157641128    0.008965437397225301
C    6.71805210100351    7.061748291218562    4.294338782243351    0.2684093062541945    -0.321198686108611    -1.4872871313266933
C    20.991757417986378    15.139143269943215    9.631524849633491    -0.643392389215423    -0.898736890883939    -1.098486424717582
C    19.51051107137078    14.241804768445284    11.863723702327984    -0.03591728542135892    0.6514399427150831    0.9283400606872579
C    19.467115888926717    5.338714780974876    5.342773829476735    0.8447910287406576    -1.5317872739661245    -1.3569157361908561
C    17.04442989892783    11.179573262577135    4.5377135674632525    0.17489879147082638    0.8299521628403577    -1.920810638125738
C    9.75214492091448    7.909665520118783    11.856922309351365    0.3438521635446514    0.034021868028403804    0.7196574853586566
C    23.22825354947115    8.805217731024735    9.58442235219589    -0.49089716393457716    1.32019318119886    -0.94368029174169
C    16.00517946832365    13.88422938185283    4.718010810191537    -0.8017672136473943    -0.4383576953262203    0.7052387377464858
C    27.480789782170447    15.480087960917762    11.617172959535212    -0.5808395014825368    3.6184937280564875    2.299079591174048
C    13.389347998136012    7.596486021826197    4.594226402069221    -0.046264433761305436    2.3374147421900013    0.42705255387637825
C    13.123855701056296    4.872440299211145    4.040302647886903    -0.40195909935689456    0.5967109224900137    -0.9082941962733758
C    12.64753966896389    13.717491998222464    9.492966517597923    0.545840099958743    0.6951430433146117    4.287385291900738
C    20.97530038245366    8.335251317448973    10.600423519640026    -0.6422225371891145    0.3670378593750782    0.6300133957998216
C    16.502636637988203    10.85079294806207    6.900496977690235    1.0342078124131395    -1.450620626387826    0.9064692271123347
C    9.019607067373974    1.3080109208445687    2.1730394493971033    -1.6097744951362183    0.26370058757071924    1.6795418988818989
C    12.07299373071628    8.404520741314311    10.81235772773731    -1.71670514098886    -1.4817345765222634    0.997617412133566
C    18.747600350981866    12.258841111031488    10.56065092033455    -0.36574665127043626    0.3369549216858052    -0.5080099136416182
C    7.015172452108002    5.4262894076561405    2.347590240376888    0.25302742332541905    -0.05521598720041631    0.07509935788229247
C    18.78251160034123    7.0857013283180255    6.946566060828641    0.4694140527455162    -0.5513201496485756    -0.6341384740218201
C    14.224469007695566    4.466485050187827    10.705760127563483    -0.9458055657745397    -0.43950337898099623    2.0890692980731704
C    11.603451262170989    5.349451807744306    2.0915175410667244    -0.10420990428288447    1.1152443621616988    0.8470916520222858
C    18.543838401175798    4.375079148751448    10.585231910862703    0.303680730512897    -1.6201972339147879    -2.1682659662612322
C    14.160667831243819    12.098710870007285    10.795787760496086    -1.573935371256837    -0.7716241121396255    0.4766830761494265
C    14.45018544044642    7.011509947840652    6.832073401261807    0.8572325978731995    -0.38723439044553537    0.7948401469896356
C    16.477007379156557    13.350335720646678    3.479800617715256    -0.2134458014031925    0.03674209537749023    0.28632115488382165
C    10.582432902092235    8.377782469927169    10.803729958995012    -2.3274044083894974    0.6730330971277177    -0.3481623612081755
C    22.44315777833504    8.370354822180708    10.648120637633818    0.898834592811411    -1.0161931196493315    0.970241846276607
C    16.567659589367246    11.689973911016514    5.702162918040675    -1.0154469854558483    0.8937227251219462    1.1335331345430992
C    19.752709342190204    6.556676208576273    5.912505297587319    -0.24175827732254024    1.3876321937466838    0.534561183763117
C    20.937902942140084    15.937436540790538    10.817725992408736    0.6898959355886991    -1.1971756558776325    -2.6977317373963534
C    19.488886710337034    13.540165709815675    10.668618978356523    0.3469128049778768    -0.8706239325849023    -0.7535286867304852
C    6.371529009087222    5.8630806488390075    3.652784530849877    0.5164133078455445    -1.1737287359463862    -0.8774512404325054
C    13.287113670442396    13.309066380643525    10.810269250499239    0.07070174270471455    2.0437350895055317    -2.2527981881306025
C    13.887372022428522    6.66488149144997    5.501186858702026    0.3288256070994712    -0.3856912142121501    -0.4543299035851946
C    12.488596287754628    5.853559681882998    3.200679859004045    0.46220673582211436    -1.5513682828935087    0.2903063650833339
C    26.74856971012843    15.90075025114669    10.529236108850316    -0.38469619721394926    -2.2885375531998284    -0.3758814264732991
O    10.08315746894864    1.501050200458931    1.573941101482483    1.9752635218505312    0.3340079230208498    -1.0452476159967947
O    12.62721678223712    8.955703669760464    9.832552292079287    0.8562020996487061    0.4789574741768384    -0.4695076409076208
O    20.39919235012287    7.4641321602901884    11.35141521129136    -0.07918329845061843    -0.20133898992740973    0.4222739011816598
O    15.34144808796582    10.482235049392207    7.284668181164747    0.4557039012178522    0.3706605440016026    0.8159874720805957
O    19.016384691239136    8.259448068479994    7.407999661220768    -0.05972518826358055    -0.10986736010417913    0.6435188875004655
O    13.965549620748263    5.310837048175544    11.629395661906845    0.0024615743516213087    0.5677505285253259    0.5866964749241426
O    18.964757008970206    11.57454425853002    9.498296919639932    -0.5868764521589592    -0.8929930459899325    1.0299773189536057
O    6.724169659438005    4.266531959190234    1.8722045706136907    -0.19385399384171936    0.13704546522351088    0.0855992297614977
O    14.989309002358754    11.848517668179902    11.724244051601735    0.5114222820137425    0.9816344052405028    0.021354041800663897
O    15.200359309885917    6.086405481062033    7.400205812261053    -1.066992979728017    1.3317744591489784    -0.48617301863097473
O    10.683892382055284    6.184519761996729    1.7395703404079805    0.22686850357582064    -0.6558709822362698    -0.6488395287823175
O    17.662435367568307    4.527759521878119    9.64210249881064    0.7797446849745541    0.08798264257114148    0.9232755012995165
O    7.857986041984485    6.202923889200398    1.7950802519056281    0.23828317402856555    0.1996127511351823    0.16316684686413324
O    14.981497208999828    4.615121609824532    9.745747168438765    1.8341906803324939    0.7465810512458905    -1.8839816394548647
O    17.887354642477394    12.0129465321045    11.494403179921116    0.25763432631605526    -0.3878936213456354    -0.15371958469827013
O    17.806453279094754    6.309886859779258    7.194991281595532    -0.09513905164812367    0.4332483987401102    1.2322542473847458
O    17.65884499015476    10.488278242553303    7.416379002429795    -1.7633197590270517    0.7325978485419761    -0.6597173528546378
O    12.548166448986402    7.693791677648976    11.776895469518676    1.5710907025053915    0.6496761658138797    -0.2693559865093303
O    20.34393939120336    9.206817729894354    9.922408032378584    0.13329885341529846    -0.16092278785630468    -0.8911017423623445
O    7.857463468905509    1.74909233925955    1.8274196418121598    0.4560890525003599    -0.12238914766138208    0.02436686071149516
O    18.857763430781485    5.182306608404846    11.489619301518633    0.04387896406897804    0.4783136698968656    0.7284398601970398
O    14.163844810128705    8.142657329873755    7.360230728587728    -0.19204033753543812    -0.5498325092476479    -0.4268478940493581
O    11.792894920225645    4.155462409412462    1.7001921686281716    -0.04005727604281352    -0.4718303756780979    -0.6626314413966554
O    13.835964747759567    11.264146337910587    9.884038668157677    0.5963838781433183    -0.31271095971465634    -1.0048920919648563
O    18.442882359243793    7.121400257955315    9.800715117804442    0.2392545368759047    -0.07763909377589129    -0.3403374652590171
O    16.392129968717537    10.582139510371382    9.857218178507331    1.0458302280169298    -0.7758582051438556    -0.16412124042933254
O    9.302433061412287    3.9652007015997683    1.0673996577713942    -1.0646861857983383    0.17288613176490497    1.4279167553260372
O    14.478398449342821    7.162072897735833    9.816748197723141    0.310471014472195    0.4872791072940909    0.18266249516014715
O    15.11113884153613    9.160319431120458    11.201390619831347    -7.301933526848252e-05    -1.2856617204855898    1.537077576228393
O    16.44457564782678    6.551160139418165    11.181147839950713    0.23109436904931635    0.627365159344662    1.1682219467816664
O    16.50639593935091    8.350138210113135    8.738223430491407    0.06169413921247506    -0.7133752514222126    0.5373045510423942
O    18.033642210935266    9.122422759734661    11.23846663261546    -0.3402017110018982    -0.024654310066530946    -0.18435993759480393
Zr    10.893906920444666    2.90658841770915    -0.019051977695474183    -0.14411137146241382    1.2003674235819386    0.056440860838511554
Zr    14.757549238860731    9.308555112561303    9.214183379238824    -1.1119034704628301    0.02676570014126608    -0.4762907257775261
Zr    18.225880348003468    9.344784918068    9.180851999025142    0.753222725431297    0.3270011521591009    -0.33560457820400924
Zr    7.388359137923477    3.030521667505481    0.14692076074094484    -0.7786571082555904    0.413619053069661    -1.222248027349609
Zr    9.220983449272417    6.075785767588413    0.00657883162539968    -0.5719985054876705    -0.1103018765710937    0.8759049788750947
Zr    16.440728831136994    6.2934328881825925    9.187973671216682    -0.24311736255574165    -0.40464795924505575    -1.3254814265784451