8
Lattice="5.64 0.0 0.0 0.0 5.64 0.0 0.0 0.0 5.64" Properties=species:S:1:pos:R:3 pbc="T T T"
Na       0.00000000       0.00000000       0.00000000
Cl       2.82000000       0.00000000       0.00000000
Na       0.00000000       2.82000000       2.82000000
Cl       2.82000000       2.82000000       2.82000000
Na       2.82000000       0.00000000       2.82000000
Cl       0.00000000       0.00000000       2.82000000
Na       2.82000000       2.82000000       0.00000000
Cl       0.00000000       2.82000000       0.00000000