59
Lattice="9.50797636 0.0 0.0 0.0 9.50797636 0.0 0.0 0.0 9.50797636" Properties=species:S:1:pos:R:3:forces:R:3 energy=-3653935.99675591 free_energy=-3653936.01683707 pbc="T T T"
Zr       2.62069402       6.73033803       8.30391028      -0.00048627       0.00080162       0.00157840
Zr       5.35596663       6.86017571       1.03774581       0.00048976       0.00008781      -0.00070662
Zr       7.86162445       8.95178354       9.08743205      -0.00197480      -0.00182373      -0.00025272
Zr       0.64533566       1.90374106       0.33824062       0.00002693       0.00297390       0.00319274
Ni       2.50995761       6.98012103       1.37504950       0.00106803      -0.00193482       0.00019446
Zr       0.82663614       0.09042549       7.15394276       0.00034825      -0.00129022      -0.00175761
Zr       5.71277405       1.03503359       7.05892520       0.00130316       0.00009990       0.00094776
Zr       8.44142791       2.70379760       5.75064193      -0.00056912      -0.00024204      -0.00096365
Ni       8.04737763       7.95800666       2.04521525      -0.00016864       0.00044331       0.00021382
Ni       3.91027397       9.07456703       2.82005129       0.00106289       0.00106438      -0.00063431
Ni       6.52185702       3.67917288       7.20693107      -0.00104682      -0.00057162       0.00034462
Ni       8.04839160       1.89314405       8.21390553      -0.00058591       0.00011430      -0.00036553
Ni       5.31907978       8.38004788       8.60330337       0.00036584      -0.00017350       0.00026936
Ni      -0.07872801       2.17525568       2.97747312       0.00018324      -0.00064721      -0.00026818
Ni       8.10029365       5.37743606       6.32720147      -0.00002930       0.00003480      -0.00053272
Ni       7.44094858       5.68696154       2.39680531      -0.00061330      -0.00009937       0.00028784
Ni       1.72155609       7.76402832       5.38955395       0.00123602      -0.00040379       0.00032148
Ni       6.14189806       7.51080537       3.49141621       0.00096816       0.00002065      -0.00019310
Ni       0.32605376       0.47873290       4.69378317       0.00004386       0.00008435      -0.00034270
Ni       5.22672984       5.71085929       7.94790284      -0.00082648      -0.00038062      -0.00039475
Ni       1.60826969       4.38872833       9.05122463       0.00011066       0.00062158       0.00042154
Ni       8.97888994       4.54564143       3.96167700       0.00095953       0.00131256      -0.00026681
Ni       2.27984039       1.54050495       2.58976571      -0.00075317      -0.00083877      -0.00086743
Ni       3.71572412       8.52845064       6.69166472       0.00021822       0.00178144       0.00023969
Zr       9.48531404       6.17274125       0.62244092       0.00093978       0.00019900       0.00156706
Zr       4.78545312       2.23464873       2.50577597      -0.00157669       0.00129901       0.00019778
Ni       8.87099406       4.25067858       8.26068532       0.00054868      -0.00038171       0.00001440
Zr       8.71265547       7.36740953       4.74814857      -0.00294865       0.00098703      -0.00119735
Ni       3.21931297       2.63116149       0.32604860      -0.00043080       0.00088810       0.00027137
Ni       7.39434007       6.34253739       8.56830609      -0.00026931       0.00083904       0.00001794
Ni       3.70983025       6.07484642       6.08842889       0.00155219      -0.00126806      -0.00083714
Ni       5.56001167       1.60580839       9.43548023       0.00045979      -0.00015717      -0.00084404
Zr       1.03280486       8.79842507       2.57073534      -0.00169202       0.00110830       0.00026151
Ni       3.83680283       4.91892664       0.33999282       0.00001801      -0.00045884      -0.00003773
Zr       6.56019853       4.01587982       0.23978535      -0.00018568      -0.00032828       0.00031187
Zr       2.04186768       4.17828835       2.30491618       0.00035499      -0.00107008      -0.00134949
Ni       0.96929761       8.49957811       9.48382513       0.00065496       0.00153338      -0.00055121
Ni       5.56687643       2.39330872       4.99280349       0.00019823       0.00063507      -0.00040073
Ni       5.00310026       4.77647834       2.46203850      -0.00052207      -0.00062260       0.00024286
Ni       9.40795074       7.18081219       7.41923598      -0.00059207       0.00008583       0.00011914
Zr       6.05296294       4.92275618       4.80653595       0.00056255      -0.00042501      -0.00082602
Zr       3.38537225       9.53649646       0.41877041      -0.00094056      -0.00179725      -0.00057521
Ni       8.90591098       3.89296758       1.50799787       0.00027395      -0.00050285       0.00042285
Zr       6.24145421       7.49559661       6.43666755       0.00024538      -0.00006026       0.00007451
Zr       3.08269713       0.98178689       5.08342796      -0.00017883      -0.00075028       0.00091529
Zr       1.23874843       5.13835596       5.87347324      -0.00057433      -0.00135870       0.00106191
Ni       1.39555442       2.82223031       4.70971656       0.00044224      -0.00009900      -0.00014991
Ni       5.97921133       9.33158241       1.48989360       0.00010591       0.00031949       0.00035213
Ni       7.92913672       9.49254095       6.26055811      -0.00073006       0.00019119      -0.00005353
Ni       7.62486492       1.70696447       1.21889397      -0.00021807      -0.00032549      -0.00003079
Ni       1.14885022       2.77283552       7.29693603       0.00024323      -0.00020583      -0.00077791
Ni       7.13381104       3.28046682       3.07384896      -0.00178544      -0.00033185       0.00007112
Zr       7.39298898       0.62888695       3.58260594       0.00228955      -0.00022985       0.00018834
Ni       5.29369992       9.29541932       4.76316871       0.00025894      -0.00000228       0.00006541
Ni       3.08241812       1.24944867       7.75641476      -0.00003460       0.00014210      -0.00045099
Zr       3.81040202       3.65714245       7.21791358       0.00163906      -0.00080571       0.00003445
Ni       3.58483516       4.00266741       4.52624946       0.00018308       0.00089386      -0.00001325
Ni       0.94900405       6.32512943       3.25232391       0.00097311      -0.00019873       0.00128679
Zr       3.57452364       6.79623214       3.80557884      -0.00059521       0.00122350       0.00015301
