96
Lattice="0.0 0.0 0.0 0.0 0.0 0.0 0.0 0.0 17.04" Properties=species:S:1:pos:R:3 pbc="F F T"
C        2.34866109       0.00000000       0.00000000
C        2.03400017       1.17433055       3.55000000
C        2.03400017       1.17433055       2.13000000
C        1.17433055       2.03400017       1.42000000
C        1.17433055       2.03400017       0.00000000
C        0.00000000       2.34866109       3.55000000
C        0.00000000       2.34866109       2.13000000
C       -1.17433055       2.03400017       1.42000000
C       -1.17433055       2.03400017       0.00000000
C       -2.03400017       1.17433055       3.55000000
C       -2.03400017       1.17433055       2.13000000
C       -2.34866109       0.00000000       1.42000000
C       -2.34866109       0.00000000       0.00000000
C       -2.03400017      -1.17433055       3.55000000
C       -2.03400017      -1.17433055       2.13000000
C       -1.17433055      -2.03400017       1.42000000
C       -1.17433055      -2.03400017       0.00000000
C       -0.00000000      -2.34866109       3.55000000
C       -0.00000000      -2.34866109       2.13000000
C        1.17433055      -2.03400017       1.42000000
C        1.17433055      -2.03400017       0.00000000
C        2.03400017      -1.17433055       3.55000000
C        2.03400017      -1.17433055       2.13000000
C        2.34866109      -0.00000000       1.42000000
C        2.34866109       0.00000000       4.26000000
C        2.03400017       1.17433055       7.81000000
C        2.03400017       1.17433055       6.39000000
C        1.17433055       2.03400017       5.68000000
C        1.17433055       2.03400017       4.26000000
C        0.00000000       2.34866109       7.81000000
C        0.00000000       2.34866109       6.39000000
C       -1.17433055       2.03400017       5.68000000
C       -1.17433055       2.03400017       4.26000000
C       -2.03400017       1.17433055       7.81000000
C       -2.03400017       1.17433055       6.39000000
C       -2.34866109       0.00000000       5.68000000
C       -2.34866109       0.00000000       4.26000000
C       -2.03400017      -1.17433055       7.81000000
C       -2.03400017      -1.17433055       6.39000000
C       -1.17433055      -2.03400017       5.68000000
C       -1.17433055      -2.03400017       4.26000000
C       -0.00000000      -2.34866109       7.81000000
C       -0.00000000      -2.34866109       6.39000000
C        1.17433055      -2.03400017       5.68000000
C        1.17433055      -2.03400017       4.26000000
C        2.03400017      -1.17433055       7.81000000
C        2.03400017      -1.17433055       6.39000000
C        2.34866109      -0.00000000       5.68000000
C        2.34866109       0.00000000       8.52000000
C        2.03400017       1.17433055      12.07000000
C        2.03400017       1.17433055      10.65000000
C        1.17433055       2.03400017       9.94000000
C        1.17433055       2.03400017       8.52000000
C        0.00000000       2.34866109      12.07000000
C        0.00000000       2.34866109      10.65000000
C       -1.17433055       2.03400017       9.94000000
C       -1.17433055       2.03400017       8.52000000
C       -2.03400017       1.17433055      12.07000000
C       -2.03400017       1.17433055      10.65000000
C       -2.34866109       0.00000000       9.94000000
C       -2.34866109       0.00000000       8.52000000
C       -2.03400017      -1.17433055      12.07000000
C       -2.03400017      -1.17433055      10.65000000
C       -1.17433055      -2.03400017       9.94000000
C       -1.17433055      -2.03400017       8.52000000
C       -0.00000000      -2.34866109      12.07000000
C       -0.00000000      -2.34866109      10.65000000
C        1.17433055      -2.03400017       9.94000000
C        1.17433055      -2.03400017       8.52000000
C        2.03400017      -1.17433055      12.07000000
C        2.03400017      -1.17433055      10.65000000
C        2.34866109      -0.00000000       9.94000000
C        2.34866109       0.00000000      12.78000000
C        2.03400017       1.17433055      16.33000000
C        2.03400017       1.17433055      14.91000000
C        1.17433055       2.03400017      14.20000000
C        1.17433055       2.03400017      12.78000000
C        0.00000000       2.34866109      16.33000000
C        0.00000000       2.34866109      14.91000000
C       -1.17433055       2.03400017      14.20000000
C       -1.17433055       2.03400017      12.78000000
C       -2.03400017       1.17433055      16.33000000
C       -2.03400017       1.17433055      14.91000000
C       -2.34866109       0.00000000      14.20000000
C       -2.34866109       0.00000000      12.78000000
C       -2.03400017      -1.17433055      16.33000000
C       -2.03400017      -1.17433055      14.91000000
C       -1.17433055      -2.03400017      14.20000000
C       -1.17433055      -2.03400017      12.78000000
C       -0.00000000      -2.34866109      16.33000000
C       -0.00000000      -2.34866109      14.91000000
C        1.17433055      -2.03400017      14.20000000
C        1.17433055      -2.03400017      12.78000000
C        2.03400017      -1.17433055      16.33000000
C        2.03400017      -1.17433055      14.91000000
C        2.34866109      -0.00000000      14.20000000
